

(declare-sort Char)
(define-sort Str () (Array Int Char))
(echo "Simulating signed 128 bit number domain...")
(echo "(including GNU C int128 (2's complement) and IEEE 754 binary128 overflow but excluding underflow)")
(echo "(https://gcc.gnu.org/onlinedocs/gcc/Integers-implementation.html#Integers-implementation)")
(echo "(https://gcc.gnu.org/onlinedocs/gcc/_005f_005fint128.html#g_t_005f_005fint128)")
(echo "(https://en.wikipedia.org/wiki/Quadruple-precision_floating-point_format#IEEE_754_quadruple-precision_binary_floating-point_format:_binary128)")
(define-fun MAX_MAX_INT () Int 9223372036854775807)  ;RangeDegradeMAX
(declare-fun MAX_INT () Int)                  ;RangeDegradeParam
(define-fun MIN_MAX_INT () Int 0)                     ;RangeDegradeMIN
(define-fun MIN_INT () Int (- (- MAX_INT) 1))
(define-fun MAX_REAL () Real (* (^ 2.0 1023) (- 2.0 (^ 2.0 (- 52)))))
(define-fun MIN_REAL () Real (- MAX_REAL))
;avoiding +/-/*/division/modulo overflow
(define-fun add_guard ((_1 Int)(_2 Int)) Bool (and 
	(<= MIN_INT _1)(<= _1 MAX_INT)
	(<= MIN_INT _2)(<= _2 MAX_INT)
	(<= MIN_INT (+ _1 _2))(<= (+ _1 _2) MAX_INT)
	))
(define-fun sub_guard ((_1 Int)(_2 Int)) Bool (and 
	(<= MIN_INT _1)(<= _1 MAX_INT)
	(<= MIN_INT _2)(<= _2 MAX_INT)
	(<= MIN_INT (- _1 _2))(<= (- _1 _2) MAX_INT)
))
(define-fun mul_guard ((_1 Int)(_2 Int)) Bool (and 
	(<= MIN_INT _1)(<= _1 MAX_INT)
	(<= MIN_INT _2)(<= _2 MAX_INT)
	(<= MIN_INT (* _1 _2))(<= (* _1 _2) MAX_INT)
))
(define-fun div_guard ((_1 Int)(_2 Int)) Bool (and 
	(not (= _2 0))
	(<= MIN_INT _1)(<= _1 MAX_INT)
	(<= MIN_INT _2)(<= _2 MAX_INT)
))
(define-fun mod_guard ((_1 Int)(_2 Int)) Bool (and 
	(div_guard _1 _2)
))
(declare-datatypes (PT_) ((Pointer 
				NULL
				Void
				(prim (value PT_))
				(ptr (addr Pointer)))))
(declare-sort PT)
(declare-sort Void)
(declare-fun pt2i ((Pointer PT)) Int)
(declare-fun i2pt (Int) (Pointer PT))
(declare-fun r2pt (Real) (Pointer PT))
(declare-fun b2pt (Bool) (Pointer PT))
(define-fun point ((_p (Pointer PT))) (Pointer PT)
				  (ite (is-ptr _p) (addr _p) _p) 
) 
(declare-fun depoint (PT) (Pointer PT))
(declare-const _v PT)
(declare-const _p (Pointer PT))
(assert (iff (= (depoint _v) _p) (= _v (value _p))))

(declare-fun i_FUNCTION_66_2503_DRB021-reductionmissing-orig-yes_c () Int)
(declare-fun i_FUNCTION_66_2487_DRB021-reductionmissing-orig-yes_c () Int)
(define-fun main ((argc_54_DRB021-reductionmissing-orig-yes_c_54_DRB021-reductionmissing-orig-yes_c Int)(argv_54_DRB021-reductionmissing-orig-yes_c (Pointer PT))) Int 0)
(declare-fun sum_null_null_null_null_FUNCTION_70_2578_DRB021-reductionmissing-orig-yes_c (Int Int Int Int ) Real)
(assert (<= 0 i_FUNCTION_66_2503_DRB021-reductionmissing-orig-yes_c 99))

(check-sat)
(get-model)
(exit)